



11 11
10 1 8 2 9 5 3 12 0 15 5 15 7 18 6 18 4 9 1 4 2 1
2 13 1 2 3 9 10 12 5 13 8 4 7 1 0 11 4 8 6 4 9 4
2 18 4 10 5 2 8 16 7 14 1 15 10 19 3 14 0 13 6 17 9 8
1 18 7 6 8 3 4 3 10 2 0 12 3 9 2 15 6 17 9 4 5 2
8 19 4 13 3 11 9 13 10 1 2 5 5 9 7 9 1 15 0 12 6 1
7 13 0 13 8 5 1 17 5 19 3 3 10 7 6 19 9 1 4 2 2 6
9 6 8 14 4 15 5 16 0 15 7 19 1 2 2 2 10 14 6 8 3 15
8 2 5 7 6 18 10 14 3 16 4 9 2 16 7 12 0 1 9 2 1 8
7 9 9 12 6 1 0 19 1 14 3 7 10 13 5 1 8 4 2 9 4 17
7 16 10 13 9 2 3 19 1 9 2 19 5 7 4 10 8 19 6 12 0 2
7 13 2 19 6 1 10 16 0 12 1 9 4 2 5 19 9 3 8 12 3 2
